GLPSOL--GLPK LP/MIP Solver 5.0
Parameter(s) specified in the command line:
 -m ../GLPK/GraphColoringGLPK.mod -d queen7_7.col.dat -o ../sol/queen7_7.col.dat.sol
Reading model section from ../GLPK/GraphColoringGLPK.mod...
../GLPK/GraphColoringGLPK.mod:28: warning: unexpected end of file; missing end statement inserted
28 lines were read
Reading data section from queen7_7.col.dat...
queen7_7.col.dat:75: duplicate tuple (2,1) detected
Context:  2 ) ( 2 , 37 ) ( 37 , 2 ) ( 2 , 44 ) ( 44 , 2 ) ( 2 , 1 ) (
MathProg model processing error
GLPSOL--GLPK LP/MIP Solver 5.0
Parameter(s) specified in the command line:
 -m ../GLPK/GraphColoringGLPK.mod -d queen7_7.col.dat -o ../sol/queen7_7.col.dat.sol
Reading model section from ../GLPK/GraphColoringGLPK.mod...
../GLPK/GraphColoringGLPK.mod:28: warning: unexpected end of file; missing end statement inserted
28 lines were read
Reading data section from queen7_7.col.dat...
957 lines were read
Generating colors_count...
Generating R1...
Generating R2...
Generating R3...
Model has been successfully generated
GLPK Integer Optimizer 5.0
46746 rows, 2450 columns, 147098 non-zeros
2450 integer variables, all of which are binary
Preprocessing...
46745 rows, 2450 columns, 147049 non-zeros
2450 integer variables, all of which are binary
Scaling...
 A: min|aij| =  1.000e+00  max|aij| =  1.000e+00  ratio =  1.000e+00
Problem data seem to be well scaled
Constructing initial basis...
Size of triangular part is 46745
Solving LP relaxation...
GLPK Simplex Optimizer 5.0
46745 rows, 2450 columns, 147049 non-zeros
      0: obj =   0.000000000e+00 inf =   1.953e+03 (953)
Perturbing LP to avoid stalling [200]...
   2538: obj =   3.320668601e+00 inf =   8.917e+01 (207) 24
   3745: obj =   4.233798262e+00 inf =   7.826e-06 (0) 11
*  5600: obj =   2.394461065e+00 inf =   4.487e-05 (1210) 19
Removing LP perturbation [7107]...
*  7107: obj =   2.000000000e+00 inf =   1.053e-12 (0) 15
OPTIMAL LP SOLUTION FOUND
Integer optimization begins...
Long-step dual simplex will be used
+  7107: mip =     not found yet >=              -inf        (1; 0)
+  7108: mip =     not found yet >=   2.000000000e+00        (3; 0)
+  7110: mip =     not found yet >=   2.000000000e+00        (5; 0)
+  7112: mip =     not found yet >=   2.000000000e+00        (7; 0)
+  7114: mip =     not found yet >=   2.000000000e+00        (9; 0)
+  7117: mip =     not found yet >=   2.000000000e+00        (12; 0)
+  7120: mip =     not found yet >=   2.000000000e+00        (15; 0)
+  7123: mip =     not found yet >=   2.000000000e+00        (18; 0)
+  7126: mip =     not found yet >=   2.000000000e+00        (21; 0)
+  7130: mip =     not found yet >=   2.000000000e+00        (25; 0)
+  7134: mip =     not found yet >=   2.000000000e+00        (29; 0)
Time used: 60.1 secs.  Memory used: 61.7 Mb.
+  7139: mip =     not found yet >=   2.000000000e+00        (34; 0)
+  7146: mip =     not found yet >=   2.000000000e+00        (41; 0)
# 11587: obj =   2.085376416e+00 inf =   0.000e+00 (2627) 43 33%
# 12381: obj =   2.086908325e+00 inf =   6.721e-15 (0) 8 54%
+ 12381: mip =     not found yet >=   3.000000000e+00        (43; 0)
+ 14300: mip =     not found yet >=   3.000000000e+00        (44; 0)
+ 16265: mip =     not found yet >=   3.000000000e+00        (46; 0)
+ 19597: mip =     not found yet >=   3.000000000e+00        (47; 0)
+ 22371: mip =     not found yet >=   3.000000000e+00        (48; 0)
+ 23039: mip =     not found yet >=   3.000000000e+00        (50; 0)
+ 26828: mip =     not found yet >=   3.000000000e+00        (49; 1)
Time used: 128.2 secs.  Memory used: 61.9 Mb.
+ 30170: mip =     not found yet >=   3.000000000e+00        (50; 1)
+ 31929: mip =     not found yet >=   3.000000000e+00        (53; 2)
+ 34897: mip =     not found yet >=   3.000000000e+00        (54; 2)
+ 37202: mip =     not found yet >=   3.000000000e+00        (56; 3)
+ 38045: mip =     not found yet >=   3.000000000e+00        (63; 3)
+ 42274: mip =     not found yet >=   3.000000000e+00        (67; 4)
+ 42332: mip =     not found yet >=   3.000000000e+00        (70; 4)
+ 43471: mip =     not found yet >=   3.000000000e+00        (72; 4)
Time used: 190.1 secs.  Memory used: 62.9 Mb.
+ 44465: mip =     not found yet >=   3.000000000e+00        (74; 4)
+ 45354: mip =     not found yet >=   3.000000000e+00        (77; 4)
+ 46594: mip =     not found yet >=   3.000000000e+00        (79; 4)
+ 47500: mip =     not found yet >=   3.000000000e+00        (81; 4)
+ 50320: mip =     not found yet >=   3.000000000e+00        (82; 4)
+ 50596: mip =     not found yet >=   3.000000000e+00        (85; 4)
+ 53275: mip =     not found yet >=   3.000000000e+00        (88; 4)
+ 54806: mip =     not found yet >=   3.000000000e+00        (90; 4)
+ 58267: mip =     not found yet >=   3.000000000e+00        (93; 5)
Time used: 251.6 secs.  Memory used: 63.7 Mb.
+ 59373: mip =     not found yet >=   3.000000000e+00        (96; 5)
+ 60180: mip =     not found yet >=   3.000000000e+00        (99; 5)
+ 60583: mip =     not found yet >=   3.000000000e+00        (102; 5)
+ 61502: mip =     not found yet >=   3.000000000e+00        (105; 5)
+ 62511: mip =     not found yet >=   3.000000000e+00        (108; 5)
+ 62976: mip =     not found yet >=   3.000000000e+00        (110; 5)
+ 63270: mip =     not found yet >=   3.000000000e+00        (113; 5)
+ 63581: mip =     not found yet >=   3.000000000e+00        (115; 5)
+ 64799: mip =     not found yet >=   3.000000000e+00        (117; 5)
Time used: 312.6 secs.  Memory used: 63.9 Mb.
+ 66013: mip =     not found yet >=   3.000000000e+00        (120; 5)
+ 66246: mip =     not found yet >=   3.000000000e+00        (124; 5)
+ 66461: mip =     not found yet >=   3.000000000e+00        (128; 5)
+ 68497: mip =     not found yet >=   3.000000000e+00        (127; 7)
+ 71163: mip =     not found yet >=   3.000000000e+00        (127; 8)
+ 74819: mip =     not found yet >=   3.000000000e+00        (128; 8)
+ 76062: mip =     not found yet >=   3.000000000e+00        (130; 8)
+ 78646: mip =     not found yet >=   3.000000000e+00        (131; 8)
+ 79586: mip =     not found yet >=   3.000000000e+00        (134; 8)
Time used: 373.0 secs.  Memory used: 64.3 Mb.
+ 81764: mip =     not found yet >=   3.000000000e+00        (136; 8)
+ 85829: mip =     not found yet >=   3.000000000e+00        (137; 9)
+ 87391: mip =     not found yet >=   3.000000000e+00        (139; 9)
+ 91267: mip =     not found yet >=   3.000000000e+00        (140; 9)
+ 92101: mip =     not found yet >=   3.000000000e+00        (144; 9)
+ 94279: mip =     not found yet >=   3.000000000e+00        (143; 11)
+ 96825: mip =     not found yet >=   3.000000000e+00        (143; 12)
+101042: mip =     not found yet >=   3.000000000e+00        (144; 12)
Time used: 434.7 secs.  Memory used: 65.0 Mb.
+102025: mip =     not found yet >=   3.000000000e+00        (146; 12)
+105461: mip =     not found yet >=   3.000000000e+00        (148; 12)
+106382: mip =     not found yet >=   3.000000000e+00        (150; 12)
+107520: mip =     not found yet >=   3.000000000e+00        (152; 12)
+108980: mip =     not found yet >=   3.000000000e+00        (155; 12)
+109751: mip =     not found yet >=   3.000000000e+00        (159; 13)
#114452: obj =   3.015042796e+00 inf =   0.000e+00 (4194) 45 58%
#115614: obj =   3.016490050e+00 inf =   4.744e-15 (0) 12 77%
+115614: mip =     not found yet >=   3.000000000e+00        (162; 13)
Time used: 494.8 secs.  Memory used: 65.8 Mb.
+116993: mip =     not found yet >=   3.000000000e+00        (164; 13)
+118070: mip =     not found yet >=   3.000000000e+00        (166; 13)
+118943: mip =     not found yet >=   3.000000000e+00        (168; 13)
+119582: mip =     not found yet >=   3.000000000e+00        (170; 13)
+120005: mip =     not found yet >=   3.000000000e+00        (172; 13)
+120155: mip =     not found yet >=   3.000000000e+00        (174; 13)
+120495: mip =     not found yet >=   3.000000000e+00        (176; 13)
+120803: mip =     not found yet >=   3.000000000e+00        (179; 13)
+121373: mip =     not found yet >=   3.000000000e+00        (182; 13)
+121607: mip =     not found yet >=   3.000000000e+00        (185; 13)
+122786: mip =     not found yet >=   3.000000000e+00        (187; 13)
Time used: 557.1 secs.  Memory used: 65.9 Mb.
+122856: mip =     not found yet >=   3.000000000e+00        (190; 13)
+123558: mip =     not found yet >=   3.000000000e+00        (194; 13)
+123622: mip =     not found yet >=   3.000000000e+00        (197; 13)
+124341: mip =     not found yet >=   3.000000000e+00        (200; 13)
+124664: mip =     not found yet >=   3.000000000e+00        (202; 13)
+124831: mip =     not found yet >=   3.000000000e+00        (205; 13)
+125163: mip =     not found yet >=   3.000000000e+00        (208; 13)
+125391: mip =     not found yet >=   3.000000000e+00        (211; 13)
+125602: mip =     not found yet >=   3.000000000e+00        (214; 13)
+125831: mip =     not found yet >=   3.000000000e+00        (217; 13)
Time used: 618.6 secs.  Memory used: 66.0 Mb.
+125897: mip =     not found yet >=   3.000000000e+00        (220; 13)
+125960: mip =     not found yet >=   3.000000000e+00        (223; 13)
+126045: mip =     not found yet >=   3.000000000e+00        (226; 13)
+126420: mip =     not found yet >=   3.000000000e+00        (229; 13)
+126495: mip =     not found yet >=   3.000000000e+00        (232; 13)
+126551: mip =     not found yet >=   3.000000000e+00        (235; 13)
+126722: mip =     not found yet >=   3.000000000e+00        (238; 13)
+126978: mip =     not found yet >=   3.000000000e+00        (241; 13)
+127040: mip =     not found yet >=   3.000000000e+00        (244; 13)
+127064: mip =     not found yet >=   3.000000000e+00        (247; 13)
Time used: 679.1 secs.  Memory used: 66.1 Mb.
+127223: mip =     not found yet >=   3.000000000e+00        (250; 13)
+129362: mip =     not found yet >=   3.000000000e+00        (249; 15)
+132247: mip =     not found yet >=   3.000000000e+00        (249; 16)
+134444: mip =     not found yet >=   3.000000000e+00        (249; 17)
+136705: mip =     not found yet >=   3.000000000e+00        (249; 18)
+140337: mip =     not found yet >=   3.000000000e+00        (253; 18)
+143800: mip =     not found yet >=   3.000000000e+00        (255; 18)
+144631: mip =     not found yet >=   3.000000000e+00        (257; 18)
Time used: 740.1 secs.  Memory used: 66.4 Mb.
+145543: mip =     not found yet >=   3.000000000e+00        (259; 18)
+146197: mip =     not found yet >=   3.000000000e+00        (261; 18)
+146504: mip =     not found yet >=   3.000000000e+00        (263; 18)
+146933: mip =     not found yet >=   3.000000000e+00        (265; 18)
+146984: mip =     not found yet >=   3.000000000e+00        (268; 18)
+148024: mip =     not found yet >=   3.000000000e+00        (271; 18)
+150788: mip =     not found yet >=   3.000000000e+00        (273; 18)
+150981: mip =     not found yet >=   3.000000000e+00        (276; 18)
+151907: mip =     not found yet >=   3.000000000e+00        (278; 19)
+155750: mip =     not found yet >=   3.000000000e+00        (278; 20)
Time used: 803.1 secs.  Memory used: 67.0 Mb.
+159969: mip =     not found yet >=   3.000000000e+00        (278; 21)
+162601: mip =     not found yet >=   3.000000000e+00        (280; 21)
+166919: mip =     not found yet >=   3.000000000e+00        (280; 22)
+168203: mip =     not found yet >=   3.000000000e+00        (282; 22)
+173132: mip =     not found yet >=   3.000000000e+00        (284; 22)
+174021: mip =     not found yet >=   3.000000000e+00        (287; 23)
+174211: mip =     not found yet >=   3.000000000e+00        (293; 23)
Time used: 867.2 secs.  Memory used: 67.3 Mb.
+176587: mip =     not found yet >=   3.000000000e+00        (293; 24)
+178542: mip =     not found yet >=   3.000000000e+00        (296; 25)
+181340: mip =     not found yet >=   3.000000000e+00        (296; 26)
+183672: mip =     not found yet >=   3.000000000e+00        (296; 27)
+186011: mip =     not found yet >=   3.000000000e+00        (297; 28)
+188298: mip =     not found yet >=   3.000000000e+00        (300; 28)
+193269: mip =     not found yet >=   3.000000000e+00        (300; 29)
#198960: obj =   3.093023358e+00 inf =   0.000e+00 (3504) 45 65%
#199090: obj =   3.093023256e+00 inf =   4.198e-14 (0) 1 100%
+199090: mip =     not found yet >=   3.000000000e+00        (302; 29)
Time used: 927.5 secs.  Memory used: 67.5 Mb.
+199537: mip =     not found yet >=   3.000000000e+00        (306; 30)
+203337: mip =     not found yet >=   3.000000000e+00        (307; 31)
+207346: mip =     not found yet >=   3.000000000e+00        (307; 32)
+208998: mip =     not found yet >=   3.000000000e+00        (308; 32)
+209786: mip =     not found yet >=   3.000000000e+00        (310; 32)
+210327: mip =     not found yet >=   3.000000000e+00        (312; 32)
+210351: mip =     not found yet >=   3.000000000e+00        (315; 32)
+210857: mip =     not found yet >=   3.000000000e+00        (317; 32)
+211301: mip =     not found yet >=   3.000000000e+00        (319; 32)
Time used: 988.2 secs.  Memory used: 73.6 Mb.
+211665: mip =     not found yet >=   3.000000000e+00        (321; 32)
+211837: mip =     not found yet >=   3.000000000e+00        (323; 32)
+211846: mip =     not found yet >=   3.000000000e+00        (326; 32)
+211963: mip =     not found yet >=   3.000000000e+00        (328; 32)
+212172: mip =     not found yet >=   3.000000000e+00        (331; 32)
+212260: mip =     not found yet >=   3.000000000e+00        (334; 32)
+215337: mip =     not found yet >=   3.000000000e+00        (337; 32)
+215775: mip =     not found yet >=   3.000000000e+00        (339; 32)
+216429: mip =     not found yet >=   3.000000000e+00        (341; 32)
Time used: 1048.5 secs.  Memory used: 73.7 Mb.
+216666: mip =     not found yet >=   3.000000000e+00        (343; 32)
+216925: mip =     not found yet >=   3.000000000e+00        (345; 32)
+217436: mip =     not found yet >=   3.000000000e+00        (347; 32)
+217933: mip =     not found yet >=   3.000000000e+00        (350; 32)
+218347: mip =     not found yet >=   3.000000000e+00        (353; 32)
+218744: mip =     not found yet >=   3.000000000e+00        (356; 32)
+218831: mip =     not found yet >=   3.000000000e+00        (360; 32)
+221956: mip =     not found yet >=   3.000000000e+00        (364; 33)
+225726: mip =     not found yet >=   3.000000000e+00        (364; 34)
Time used: 1109.7 secs.  Memory used: 74.2 Mb.
+226635: mip =     not found yet >=   3.000000000e+00        (367; 34)
+228535: mip =     not found yet >=   3.000000000e+00        (368; 34)
+229423: mip =     not found yet >=   3.000000000e+00        (370; 34)
+230432: mip =     not found yet >=   3.000000000e+00        (372; 34)
+231374: mip =     not found yet >=   3.000000000e+00        (374; 34)
+232550: mip =     not found yet >=   3.000000000e+00        (376; 34)
+233155: mip =     not found yet >=   3.000000000e+00        (378; 34)
+234033: mip =     not found yet >=   3.000000000e+00        (380; 34)
+234586: mip =     not found yet >=   3.000000000e+00        (382; 34)
+235317: mip =     not found yet >=   3.000000000e+00        (384; 34)
Time used: 1170.7 secs.  Memory used: 74.4 Mb.
+236137: mip =     not found yet >=   3.000000000e+00        (387; 35)
+237839: mip =     not found yet >=   3.000000000e+00        (388; 36)
+240058: mip =     not found yet >=   3.000000000e+00        (389; 37)
+242537: mip =     not found yet >=   3.000000000e+00        (390; 38)
+244877: mip =     not found yet >=   3.000000000e+00        (390; 39)
+248621: mip =     not found yet >=   3.000000000e+00        (391; 39)
+251264: mip =     not found yet >=   3.000000000e+00        (393; 39)
+251952: mip =     not found yet >=   3.000000000e+00        (395; 39)
+254003: mip =     not found yet >=   3.000000000e+00        (397; 39)
Time used: 1232.3 secs.  Memory used: 75.1 Mb.
+254345: mip =     not found yet >=   3.000000000e+00        (400; 39)
+254924: mip =     not found yet >=   3.000000000e+00        (402; 39)
+255029: mip =     not found yet >=   3.000000000e+00        (405; 39)
+255227: mip =     not found yet >=   3.000000000e+00        (407; 39)
+255310: mip =     not found yet >=   3.000000000e+00        (410; 39)
+255575: mip =     not found yet >=   3.000000000e+00        (413; 39)
+255687: mip =     not found yet >=   3.000000000e+00        (416; 39)
+255761: mip =     not found yet >=   3.000000000e+00        (419; 39)
#261282: obj =   3.013958180e+00 inf =   0.000e+00 (1454) 47 20%
#261843: obj =   3.014114228e+00 inf =   9.300e-15 (0) 6 75%
+261843: mip =     not found yet >=   3.000000000e+00        (421; 40)
Time used: 1300.8 secs.  Memory used: 75.6 Mb.
+261867: mip =     not found yet >=   3.000000000e+00        (424; 40)
+263060: mip =     not found yet >=   3.000000000e+00        (426; 40)
+263114: mip =     not found yet >=   3.000000000e+00        (429; 40)
+263131: mip =     not found yet >=   3.000000000e+00        (432; 40)
+263164: mip =     not found yet >=   3.000000000e+00        (435; 40)
+264322: mip =     not found yet >=   3.000000000e+00        (438; 40)
+265548: mip =     not found yet >=   3.000000000e+00        (440; 40)
+266294: mip =     not found yet >=   3.000000000e+00        (443; 40)
+266993: mip =     not found yet >=   3.000000000e+00        (446; 40)
Time used: 1362.7 secs.  Memory used: 75.8 Mb.
+267121: mip =     not found yet >=   3.000000000e+00        (450; 40)
+267531: mip =     not found yet >=   3.000000000e+00        (453; 41)
+271303: mip =     not found yet >=   3.000000000e+00        (455; 41)
+273794: mip =     not found yet >=   3.000000000e+00        (457; 41)
+275081: mip =     not found yet >=   3.000000000e+00        (459; 41)
+277603: mip =     not found yet >=   3.000000000e+00        (461; 41)
+279331: mip =     not found yet >=   3.000000000e+00        (464; 41)
Time used: 1424.1 secs.  Memory used: 75.9 Mb.
+280023: mip =     not found yet >=   3.000000000e+00        (467; 41)
+281066: mip =     not found yet >=   3.000000000e+00        (471; 41)
+285231: mip =     not found yet >=   3.000000000e+00        (474; 42)
+286599: mip =     not found yet >=   3.000000000e+00        (476; 42)
+287762: mip =     not found yet >=   3.000000000e+00        (478; 42)
+288273: mip =     not found yet >=   3.000000000e+00        (481; 42)
+288375: mip =     not found yet >=   3.000000000e+00        (483; 42)
+291909: mip =     not found yet >=   3.000000000e+00        (485; 42)
Time used: 1485.2 secs.  Memory used: 76.6 Mb.
+291992: mip =     not found yet >=   3.000000000e+00        (488; 42)
+292220: mip =     not found yet >=   3.000000000e+00        (490; 42)
+292858: mip =     not found yet >=   3.000000000e+00        (493; 42)
+294447: mip =     not found yet >=   3.000000000e+00        (495; 42)
+294753: mip =     not found yet >=   3.000000000e+00        (498; 42)
+295556: mip =     not found yet >=   3.000000000e+00        (500; 42)
+295589: mip =     not found yet >=   3.000000000e+00        (503; 42)
+295753: mip =     not found yet >=   3.000000000e+00        (506; 42)
+296247: mip =     not found yet >=   3.000000000e+00        (509; 42)
+296752: mip =     not found yet >=   3.000000000e+00        (512; 42)
Time used: 1546.1 secs.  Memory used: 76.9 Mb.
+299891: mip =     not found yet >=   3.000000000e+00        (514; 44)
+302310: mip =     not found yet >=   3.000000000e+00        (515; 44)
+305963: mip =     not found yet >=   3.000000000e+00        (514; 46)
+308274: mip =     not found yet >=   3.000000000e+00        (514; 47)
+311167: mip =     not found yet >=   3.000000000e+00        (518; 48)
+313880: mip =     not found yet >=   3.000000000e+00        (518; 49)
+316127: mip =     not found yet >=   3.000000000e+00        (519; 50)
+318459: mip =     not found yet >=   3.000000000e+00        (520; 50)
Time used: 1606.3 secs.  Memory used: 77.4 Mb.
+322846: mip =     not found yet >=   3.000000000e+00        (522; 52)
+325424: mip =     not found yet >=   3.000000000e+00        (522; 53)
+329558: mip =     not found yet >=   3.000000000e+00        (526; 53)
+330715: mip =     not found yet >=   3.000000000e+00        (528; 53)
+331324: mip =     not found yet >=   3.000000000e+00        (531; 53)
+333609: mip =     not found yet >=   3.000000000e+00        (530; 54)
+337334: mip =     not found yet >=   3.000000000e+00        (533; 54)
Time used: 1668.5 secs.  Memory used: 77.6 Mb.
+338345: mip =     not found yet >=   3.000000000e+00        (535; 54)
+339073: mip =     not found yet >=   3.000000000e+00        (537; 54)
+339392: mip =     not found yet >=   3.000000000e+00        (539; 54)
+340680: mip =     not found yet >=   3.000000000e+00        (541; 54)
+342123: mip =     not found yet >=   3.000000000e+00        (542; 54)
+343067: mip =     not found yet >=   3.000000000e+00        (545; 54)
+345308: mip =     not found yet >=   3.000000000e+00        (546; 54)
+346031: mip =     not found yet >=   3.000000000e+00        (548; 54)
+348844: mip =     not found yet >=   3.000000000e+00        (550; 54)
Time used: 1728.8 secs.  Memory used: 77.8 Mb.
+350033: mip =     not found yet >=   3.000000000e+00        (553; 54)
+350591: mip =     not found yet >=   3.000000000e+00        (555; 54)
+350903: mip =     not found yet >=   3.000000000e+00        (558; 54)
+351196: mip =     not found yet >=   3.000000000e+00        (563; 54)
+353692: mip =     not found yet >=   3.000000000e+00        (564; 56)
+356275: mip =     not found yet >=   3.000000000e+00        (564; 57)
+358921: mip =     not found yet >=   3.000000000e+00        (564; 58)
+361445: mip =     not found yet >=   3.000000000e+00        (565; 58)
+364636: mip =     not found yet >=   3.000000000e+00        (567; 60)
Time used: 1791.7 secs.  Memory used: 78.5 Mb.
+367236: mip =     not found yet >=   3.000000000e+00        (567; 61)
+369662: mip =     not found yet >=   3.000000000e+00        (567; 62)
+372338: mip =     not found yet >=   3.000000000e+00        (568; 62)
+377048: mip =     not found yet >=   3.000000000e+00        (570; 63)
#381544: obj =   3.031032462e+00 inf =   0.000e+00 (1054) 44 77%
#381680: obj =   3.031032465e+00 inf =   3.847e-14 (0) 1 100%
+381680: mip =     not found yet >=   3.000000000e+00        (571; 63)
+384594: mip =     not found yet >=   3.000000000e+00        (571; 65)
+391485: mip =     not found yet >=   3.000000000e+00        (572; 66)
Time used: 1855.0 secs.  Memory used: 79.1 Mb.
+392953: mip =     not found yet >=   3.000000000e+00        (574; 66)
+393137: mip =     not found yet >=   3.000000000e+00        (576; 66)
+394700: mip =     not found yet >=   3.000000000e+00        (578; 66)
+395873: mip =     not found yet >=   3.000000000e+00        (581; 67)
+399493: mip =     not found yet >=   3.000000000e+00        (585; 67)
+400465: mip =     not found yet >=   3.000000000e+00        (587; 67)
+400987: mip =     not found yet >=   3.000000000e+00        (589; 67)
+401717: mip =     not found yet >=   3.000000000e+00        (591; 67)
+403274: mip =     not found yet >=   3.000000000e+00        (592; 67)
Time used: 1916.0 secs.  Memory used: 79.3 Mb.
+403967: mip =     not found yet >=   3.000000000e+00        (595; 67)
+407223: mip =     not found yet >=   3.000000000e+00        (595; 68)
+411012: mip =     not found yet >=   3.000000000e+00        (596; 69)
+414259: mip =     not found yet >=   3.000000000e+00        (595; 71)
+418289: mip =     not found yet >=   3.000000000e+00        (595; 72)
+421957: mip =     not found yet >=   3.000000000e+00        (596; 72)
+423317: mip =     not found yet >=   3.000000000e+00        (598; 72)
+425386: mip =     not found yet >=   3.000000000e+00        (600; 72)
Time used: 1978.8 secs.  Memory used: 79.5 Mb.
+426305: mip =     not found yet >=   3.000000000e+00        (604; 73)
+429717: mip =     not found yet >=   3.000000000e+00        (605; 73)
+430314: mip =     not found yet >=   3.000000000e+00        (607; 73)
+431183: mip =     not found yet >=   3.000000000e+00        (609; 73)
+432168: mip =     not found yet >=   3.000000000e+00        (611; 73)
+435394: mip =     not found yet >=   3.000000000e+00        (613; 73)
+436260: mip =     not found yet >=   3.000000000e+00        (615; 73)
+436763: mip =     not found yet >=   3.000000000e+00        (617; 73)
+436804: mip =     not found yet >=   3.000000000e+00        (620; 73)
Time used: 2040.1 secs.  Memory used: 80.2 Mb.
+437680: mip =     not found yet >=   3.000000000e+00        (623; 73)
+438304: mip =     not found yet >=   3.000000000e+00        (625; 73)
+438503: mip =     not found yet >=   3.000000000e+00        (628; 73)
+438764: mip =     not found yet >=   3.000000000e+00        (633; 73)
+439110: mip =     not found yet >=   3.000000000e+00        (637; 73)
+439208: mip =     not found yet >=   3.000000000e+00        (642; 73)
+439242: mip =     not found yet >=   3.000000000e+00        (647; 73)
+443604: mip =     not found yet >=   3.000000000e+00        (649; 74)
+444584: mip =     not found yet >=   3.000000000e+00        (651; 74)
Time used: 2101.9 secs.  Memory used: 80.8 Mb.
+445517: mip =     not found yet >=   3.000000000e+00        (653; 74)
+446025: mip =     not found yet >=   3.000000000e+00        (656; 74)
+447318: mip =     not found yet >=   3.000000000e+00        (658; 74)
+448087: mip =     not found yet >=   3.000000000e+00        (660; 74)
+448719: mip =     not found yet >=   3.000000000e+00        (662; 74)
+449581: mip =     not found yet >=   3.000000000e+00        (664; 74)
+449918: mip =     not found yet >=   3.000000000e+00        (667; 74)
+454324: mip =     not found yet >=   3.000000000e+00        (669; 75)
Time used: 2163.1 secs.  Memory used: 81.3 Mb.
+456797: mip =     not found yet >=   3.000000000e+00        (671; 75)
+457596: mip =     not found yet >=   3.000000000e+00        (673; 75)
+458315: mip =     not found yet >=   3.000000000e+00        (675; 75)
+458381: mip =     not found yet >=   3.000000000e+00        (678; 75)
+458393: mip =     not found yet >=   3.000000000e+00        (681; 75)
+458882: mip =     not found yet >=   3.000000000e+00        (684; 75)
+460088: mip =     not found yet >=   3.000000000e+00        (686; 75)
+460271: mip =     not found yet >=   3.000000000e+00        (688; 75)
+461009: mip =     not found yet >=   3.000000000e+00        (690; 75)
+461526: mip =     not found yet >=   3.000000000e+00        (693; 75)
Time used: 2225.4 secs.  Memory used: 81.5 Mb.
+461837: mip =     not found yet >=   3.000000000e+00        (695; 75)
+462666: mip =     not found yet >=   3.000000000e+00        (697; 75)
+463154: mip =     not found yet >=   3.000000000e+00        (699; 75)
+463244: mip =     not found yet >=   3.000000000e+00        (702; 75)
+463643: mip =     not found yet >=   3.000000000e+00        (704; 75)
+464033: mip =     not found yet >=   3.000000000e+00        (707; 75)
+464596: mip =     not found yet >=   3.000000000e+00        (709; 75)
+464897: mip =     not found yet >=   3.000000000e+00        (711; 75)
+465486: mip =     not found yet >=   3.000000000e+00        (714; 75)
+465583: mip =     not found yet >=   3.000000000e+00        (717; 75)
Time used: 2286.4 secs.  Memory used: 81.6 Mb.
+466191: mip =     not found yet >=   3.000000000e+00        (719; 75)
+466341: mip =     not found yet >=   3.000000000e+00        (722; 75)
+466727: mip =     not found yet >=   3.000000000e+00        (726; 75)
+467617: mip =     not found yet >=   3.000000000e+00        (730; 75)
+468362: mip =     not found yet >=   3.000000000e+00        (734; 75)
+472171: mip =     not found yet >=   3.000000000e+00        (734; 76)
+474498: mip =     not found yet >=   3.000000000e+00        (734; 77)
+478722: mip =     not found yet >=   3.000000000e+00        (735; 77)
+478898: mip =     not found yet >=   3.000000000e+00        (738; 77)
Time used: 2348.3 secs.  Memory used: 82.3 Mb.
+481438: mip =     not found yet >=   3.000000000e+00        (739; 77)
+482319: mip =     not found yet >=   3.000000000e+00        (741; 77)
+484644: mip =     not found yet >=   3.000000000e+00        (741; 78)
+488069: mip =     not found yet >=   3.000000000e+00        (743; 78)
+489331: mip =     not found yet >=   3.000000000e+00        (745; 78)
+490154: mip =     not found yet >=   3.000000000e+00        (747; 78)
+490829: mip =     not found yet >=   3.000000000e+00        (749; 78)
+491451: mip =     not found yet >=   3.000000000e+00        (752; 78)
Time used: 2409.7 secs.  Memory used: 82.5 Mb.
+491463: mip =     not found yet >=   3.000000000e+00        (755; 78)
+496289: mip =     not found yet >=   3.000000000e+00        (756; 79)
+497395: mip =     not found yet >=   3.000000000e+00        (759; 79)
+498007: mip =     not found yet >=   3.000000000e+00        (761; 79)
+498297: mip =     not found yet >=   3.000000000e+00        (763; 79)
+499744: mip =     not found yet >=   3.000000000e+00        (765; 79)
+500945: mip =     not found yet >=   3.000000000e+00        (767; 79)
+501278: mip =     not found yet >=   3.000000000e+00        (770; 79)
+501721: mip =     not found yet >=   3.000000000e+00        (773; 79)
Time used: 2470.6 secs.  Memory used: 83.0 Mb.
+503555: mip =     not found yet >=   3.000000000e+00        (776; 79)
+503616: mip =     not found yet >=   3.000000000e+00        (779; 79)
+504096: mip =     not found yet >=   3.000000000e+00        (782; 79)
+504630: mip =     not found yet >=   3.000000000e+00        (785; 79)
+504913: mip =     not found yet >=   3.000000000e+00        (787; 79)
+504979: mip =     not found yet >=   3.000000000e+00        (790; 79)
+505453: mip =     not found yet >=   3.000000000e+00        (793; 79)
+506227: mip =     not found yet >=   3.000000000e+00        (795; 80)
+509274: mip =     not found yet >=   3.000000000e+00        (795; 81)
+511772: mip =     not found yet >=   3.000000000e+00        (796; 81)
Time used: 2534.4 secs.  Memory used: 83.2 Mb.
+514321: mip =     not found yet >=   3.000000000e+00        (796; 82)
+519022: mip =     not found yet >=   3.000000000e+00        (799; 82)
+520796: mip =     not found yet >=   3.000000000e+00        (801; 82)
+521540: mip =     not found yet >=   3.000000000e+00        (803; 82)
+522128: mip =     not found yet >=   3.000000000e+00        (805; 82)
+523824: mip =     not found yet >=   3.000000000e+00        (807; 82)
+524034: mip =     not found yet >=   3.000000000e+00        (809; 82)
+524744: mip =     not found yet >=   3.000000000e+00        (811; 82)
Time used: 2595.4 secs.  Memory used: 83.3 Mb.
+524921: mip =     not found yet >=   3.000000000e+00        (813; 82)
+525215: mip =     not found yet >=   3.000000000e+00        (815; 82)
+529473: mip =     not found yet >=   3.000000000e+00        (816; 82)
+531836: mip =     not found yet >=   3.000000000e+00        (818; 82)
+532562: mip =     not found yet >=   3.000000000e+00        (822; 82)
+537258: mip =     not found yet >=   3.000000000e+00        (823; 83)
+538493: mip =     not found yet >=   3.000000000e+00        (825; 83)
+538968: mip =     not found yet >=   3.000000000e+00        (827; 83)
Time used: 2655.6 secs.  Memory used: 83.9 Mb.
+539243: mip =     not found yet >=   3.000000000e+00        (829; 83)
+540258: mip =     not found yet >=   3.000000000e+00        (832; 83)
+542385: mip =     not found yet >=   3.000000000e+00        (834; 83)
+543464: mip =     not found yet >=   3.000000000e+00        (837; 83)
+544530: mip =     not found yet >=   3.000000000e+00        (839; 83)
+544773: mip =     not found yet >=   3.000000000e+00        (841; 83)
+545222: mip =     not found yet >=   3.000000000e+00        (844; 83)
+546018: mip =     not found yet >=   3.000000000e+00        (846; 83)
+546048: mip =     not found yet >=   3.000000000e+00        (849; 83)
Time used: 2718.2 secs.  Memory used: 84.1 Mb.
+548058: mip =     not found yet >=   3.000000000e+00        (851; 83)
+549027: mip =     not found yet >=   3.000000000e+00        (854; 84)
+552600: mip =     not found yet >=   3.000000000e+00        (856; 84)
+553506: mip =     not found yet >=   3.000000000e+00        (858; 84)
+554363: mip =     not found yet >=   3.000000000e+00        (860; 84)
+555675: mip =     not found yet >=   3.000000000e+00        (862; 84)
+556845: mip =     not found yet >=   3.000000000e+00        (864; 84)
+558793: mip =     not found yet >=   3.000000000e+00        (865; 84)
+560168: mip =     not found yet >=   3.000000000e+00        (867; 84)
Time used: 2779.2 secs.  Memory used: 84.9 Mb.
+561022: mip =     not found yet >=   3.000000000e+00        (870; 84)
+561038: mip =     not found yet >=   3.000000000e+00        (873; 84)
+561458: mip =     not found yet >=   3.000000000e+00        (875; 84)
